(set-info :smt-lib-version 2.6)
(set-logic QF_SLIA)
(set-info :source |
Generated by: Dmitry Blotsky1, Federico Mora, Murphy Berzish, Yunhui Zheng, Ifaz Kabir, Vijay Ganesh, Zhengyang Lu
Generated on: 2018-01-24
Generator: StringFuzz
Application: Evaluate string solvers
Target solver: Z3str3, CVC4, Z3str2, Norn
Publications: Blotsky, D., Mora, F., Berzish, M., Zheng, Y., Kabir, I., & Ganesh, V. (2018). Stringfuzz: A fuzzer for string solvers. In CAV 2018.
Description: transformed by StringFuzz, a modular string and regex fuzzer, from an industrial benchmark
|)
(set-info :license "https://creativecommons.org/licenses/by/4.0/")
(set-info :category "random")
(set-info :status unknown)

(declare-const x String)
(declare-const y String)
(assert (str.in_re x (re.+ (re.++ (str.to_re "##PPdd") (str.to_re "11HH")))))
(assert (= 16 (str.to.int x)))
(assert (not (= x "ww''{{''' '' '''QQ&&bbzzooRRqqAANNGGNN@@]]@@OO[[vv@@@@RRUU::RRHH''\\\\tt''))hhWW((DDJJ[[DDJJtt\\\\\\\\PPoo''\\\\tt''KK33pp\\\\\\\\77EEOOnn))]]HHbb>>ddWW00kkxxOOEE00YY==``..::FF//99bbNNjjbb++jjxx``AAUUss}}ppFF::00kkvvkkbb{{gg33YY''\\\\xx00cc''44PPAA::{{EEYYssAAbb..JJHH''\\\\xx00bb''''' '' '''JJJJpp>>))33bb``nn00kkyy55>>**??::PP''' '' '''..ddII88##22ccyyGG**iihh__>>BBRRllJJ\\\\\\\\..''' '' '''hh''\\\\xx00cc''hhJJ%%%%rrJJ33OO\\\\\\\\::!!33..}}??__''\\\\tt''__uuLL77vv44''\\\\rr''00mmbbiinnVV||>>PPssppzzvv''NN||yy}}dd")))
(assert (not (= x "aa==11YY''\\\\tt''TT44''\\\\tt''ll**TT>>vv77ssDDrrZZrrXX__AAVVnn,,ZZ``%%BBwwTTrr99HH''\\\\rr''EE--77vv@@99QQCCii''\\\\rr''__CC""""""""KKoo\\\\\\\\KK''\\\\nn''WW^^ffSSaa;;TT''\\\\xx00bb''hh##``WW7722KKRR''\\\\rr''CC//BB{{44--JJ66++\\\\\\\\__55..II~~@@LL''2288__$$GGEEJJzzXX||ii..CCrr((qq@@??!!~~{{ttLLxx..AAUURRPP""""""""::&&YYSS%%88''PPIIggEEAA%%>>UU~~zzSSXXCC''\\\\tt''--##==jj;;((")))
(check-sat)

(exit)
